<number of tasks>
50

<cycle time>
1000

<order strength>
0.598


<task times>
1 78
2 298
3 32
4 179
5 50
6 44
7 143
8 94
9 292
10 136
11 151
12 101
13 185
14 109
15 187
16 66
17 107
18 182
19 109
20 103
21 59
22 47
23 150
24 108
25 225
26 155
27 142
28 69
29 46
30 208
31 296
32 172
33 82
34 98
35 86
36 85
37 176
38 305
39 41
40 42
41 199
42 295
43 29
44 302
45 61
46 185
47 132
48 58
49 194
50 93

<precedence relations>
1,11
2,6
3,6
3,7
3,8
3,10
4,6
4,8
4,9
4,10
4,11
6,12
6,17
6,21
7,15
8,12
8,13
8,14
8,15
8,16
8,17
9,12
9,14
9,24
10,17
10,20
11,12
11,13
11,14
11,15
11,16
11,17
12,18
12,19
12,23
13,24
13,40
14,20
14,21
14,22
15,18
15,21
15,24
15,26
15,27
16,18
16,20
17,18
17,19
18,25
18,31
18,32
19,31
20,35
21,25
21,28
21,32
22,26
22,27
23,38
23,47
25,29
25,30
25,40
26,36
27,32
28,31
28,42
30,35
31,35
31,36
32,33
32,34
32,38
33,39
34,40
34,46
35,38
35,46
36,37
36,41
36,45
37,49
39,44
39,45
40,42
40,43
41,43
41,44
41,46
42,47
43,48
44,49
45,47
46,50
47,49
47,50
48,49
48,50

<end>
